proyfinal/src/viki/013/experimentInOfficeAgust.take6.output/96d311ea-3da9-4c5f-b6fa-7d0df99070c8.als.dat
{'cnf.clauses': '118081',
 'cnf.totvars': '69608',
 'conflict literals': '20',
 'conflicts': '12',
 'decisions': '6380',
 'memused.mb': '16.02',
 'outcome': 'UNSAT',
 'propagations': '31976',
 'restarts': '1',
 'solver.msecs': 31,
 'task.msecs': 130}
