proyfinal/src/viki/013/experimentInOfficeAgust.take6.output/96d311ea-3da9-4c5f-b6fa-7d0df99070c8.als.out
Reading from standard input... Use '--help' for help.
============================[ Problem Statistics ]=============================
|                                                                             |
|  Number of variables:         69608                                         |
|  Number of clauses:          118081                                         |
|  Parse time:                   0.03 s                                       |
|                                                                             |
============================[ Search Statistics ]==============================
| Conflicts |          ORIGINAL         |          LEARNT          | Progress |
|           |    Vars  Clauses Literals |    Limit  Clauses Lit/Cl |          |
===============================================================================
===============================================================================
restarts              : 1
conflicts             : 12             (376 /sec)
decisions             : 6380           (0.00 % random) (199893 /sec)
propagations          : 31976          (1001849 /sec)
conflict literals     : 20             (0.00 % deleted)
Memory used           : 16.02 MB
CPU time              : 0.031917 s

UNSATISFIABLE
